[[29,38,153,272,273,375,572,684,709,730,828,851,920,941],[39,156,161,166,276,394,579,586,735,753,756,857,958,959],[1,2,24,253,550,566,670,671,691,704,711,832,835,848],[68,70,73,75,82,89,113,137,200,201,214,225,229,250],[338,342,344,346,348,363,366,371,457,459,466,473,480,532],[65,192,198,215,317,324,376,409,424,632,633,795,802,994,999],[47,55,64,174,296,310,398,399,594,607,764,786,926,964,991]]